
List of user-set options:

                                    Name   Value                used
                   hessian_approximation = limited-memory        yes
                           linear_solver = mumps                 yes
                  ma57_automatic_scaling = yes                    no
                                max_iter = 2000                  yes
                             mu_strategy = adaptive              yes
                             output_file = drft-ProblemIPOPTinfo.txt  yes
                             print_level = 5                     yes
                      print_user_options = yes                   yes
                                     tol = 1e-007                yes
This is Ipopt version 3.11.0, running with linear solver mumps.

Number of nonzeros in equality constraint Jacobian...:   179580
Number of nonzeros in inequality constraint Jacobian.:        1
Number of nonzeros in Lagrangian Hessian.............:        0

Total number of variables............................:     2586
                     variables with only lower bounds:        0
                variables with lower and upper bounds:     2586
                     variables with only upper bounds:        0
Total number of equality constraints.................:     2351
Total number of inequality constraints...............:        1
        inequality constraints with only lower bounds:        0
   inequality constraints with lower and upper bounds:        1
        inequality constraints with only upper bounds:        0

iter    objective    inf_pr   inf_du lg(mu)  ||d||  lg(rg) alpha_du alpha_pr  ls
   0 5.0999999e-001 1.35e+001 2.34e-004   0.0 0.00e+000    -  0.00e+000 0.00e+000   0
   1 5.1090222e-001 1.33e+001 5.72e+002   1.4 1.80e+002    -  1.41e-001 1.36e-002h  1
   2 5.1320539e-001 1.31e+001 6.39e+002  -4.5 1.30e+002    -  6.84e-002 1.57e-002h  4
   3 5.2095012e-001 1.27e+001 1.32e+003  -0.1 1.52e+002    -  2.36e-001 3.36e-002h  3
   4 5.2258157e-001 1.26e+001 1.82e+003   1.3 1.55e+002    -  4.90e-001 6.60e-003f  6
   5 5.2266905e-001 1.26e+001 2.69e+003   1.7 1.51e+002    -  1.65e-001 3.90e-004h  9
   6 5.5167268e-001 1.18e+001 3.07e+003   1.7 2.02e+002    -  7.21e-001 5.93e-002f  3
   7 5.5127303e-001 1.18e+001 6.37e+003   1.5 1.79e+002    -  2.26e-001 7.24e-004h  8
   8 5.5107474e-001 1.18e+001 1.34e+004   1.5 2.96e+002    -  1.50e-001 3.60e-004h  9
   9 5.4475424e-001 1.16e+001 4.78e+004   1.5 3.00e+002    -  3.02e-001 1.15e-002f  4
iter    objective    inf_pr   inf_du lg(mu)  ||d||  lg(rg) alpha_du alpha_pr  ls
  10 5.4408291e-001 1.16e+001 1.62e+005   1.5 2.37e+002    -  2.21e-001 1.24e-003h  5
  11 5.3862765e-001 1.15e+001 4.62e+005   1.5 4.28e+002    -  1.72e-001 1.01e-002h  4
  12 5.3717188e-001 1.15e+001 2.11e+006   1.5 2.33e+002    -  2.75e-001 2.74e-003h  5
  13 5.3715535e-001 1.15e+001 3.12e+006   1.5 1.11e+003    -  4.30e-002 3.71e-005h 11
  14r5.3715535e-001 1.15e+001 9.97e+002   1.5 0.00e+000    -  0.00e+000 4.82e-007R 16
  15r5.1518071e-001 1.04e+001 7.08e+003   3.0 1.10e+003    -  5.98e-002 7.50e-003f  1
  16r5.0015180e-001 9.13e+000 3.38e+004   2.6 5.91e+001    -  1.65e-001 3.92e-002f  1
  17 5.0198910e-001 8.99e+000 1.68e+002  -0.6 1.47e+002    -  2.66e-001 1.29e-002h  3
  18 5.0230154e-001 8.97e+000 1.33e+001   1.2 1.60e+002  -3.0 3.92e-002 2.05e-003h  8
  19 5.0254202e-001 8.97e+000 3.28e+002   0.5 1.54e+002    -  2.35e-001 1.09e-003h  9
iter    objective    inf_pr   inf_du lg(mu)  ||d||  lg(rg) alpha_du alpha_pr  ls
  20 5.0002541e-001 8.88e+000 1.29e+004   0.5 1.97e+001   3.3 2.63e-001 8.36e-003h  1
  21 5.0019763e-001 8.96e+000 1.45e+005   2.8 1.48e+002   2.8 5.27e-002 3.15e-003f  2
  22 5.0018540e-001 8.96e+000 5.24e+005   2.2 5.23e+001   2.4 5.15e-001 4.74e-005h  5
  23 5.0018550e-001 8.96e+000 4.75e+005   4.0 1.53e+002   2.8 1.74e-002 2.99e-006h 12
  24 5.7274444e-001 1.47e+001 3.21e+005   3.6 2.17e+002    -  1.00e+000 9.81e-002f  2
  25 5.7328793e-001 1.46e+001 3.26e+005   3.5 1.46e+002    -  2.82e-001 2.00e-003h  8
  26 5.7732962e-001 1.40e+001 3.52e+005   2.8 1.56e+002    -  2.83e-001 1.61e-002h  5
  27 5.7559988e-001 1.02e+001 4.03e+005   2.1 1.64e+002    -  2.18e-001 4.39e-003h  6
  28 5.6279224e-001 9.88e+000 7.07e+005   2.1 1.63e+002    -  2.20e-001 2.90e-002h  3
  29 5.6351704e-001 9.85e+000 1.01e+006   2.1 1.44e+002    -  3.19e-001 4.05e-003h  4
iter    objective    inf_pr   inf_du lg(mu)  ||d||  lg(rg) alpha_du alpha_pr  ls
  30 5.6356126e-001 9.85e+000 1.14e+006   2.1 1.42e+002    -  3.82e-001 1.82e-004h 11
  31 5.6359790e-001 9.85e+000 5.28e+006   2.1 4.86e+002    -  2.13e-001 9.60e-005h 11
  32 5.6360268e-001 9.85e+000 9.71e+007   2.1 4.79e+002    -  1.88e-001 1.22e-005h 14
  33 6.0637504e-001 2.23e+001 6.43e+005   2.1 4.42e+002    -  1.08e-001 1.08e-001s 19
  34 6.0989219e-001 2.09e+001 3.89e+005   2.1 1.65e+002    -  2.10e-001 2.10e-001s 19
  35r6.0989219e-001 2.09e+001 9.99e+002   2.1 0.00e+000    -  0.00e+000 0.00e+000R  1
  36r1.9100154e+000 2.00e+002 1.55e+005   4.6 3.67e+003    -  5.70e-003 2.33e-002f  1
  37r1.7667971e+000 1.67e+002 1.50e+005   2.9 2.65e+003    -  2.38e-002 2.24e-002f  1
  38r1.6765787e+000 1.46e+002 1.50e+005   2.9 1.08e+003    -  8.66e-002 2.12e-002f  1
  39r1.5362721e+000 1.14e+002 1.51e+005   2.9 1.03e+003    -  1.35e-001 4.16e-002f  1
iter    objective    inf_pr   inf_du lg(mu)  ||d||  lg(rg) alpha_du alpha_pr  ls
  40r1.4158497e+000 1.05e+002 1.49e+005   2.9 1.74e+002    -  3.62e-001 5.65e-002f  1
  41r1.1393922e+000 8.31e+001 1.24e+005   2.9 6.44e+001    -  2.45e-001 1.79e-001f  1
  42r8.2630020e-001 5.72e+001 1.07e+005   2.9 2.31e+001    -  3.78e-001 2.77e-001f  1
  43r5.5934717e-001 3.60e+001 7.26e+004   2.9 2.04e+001    -  5.85e-001 4.07e-001f  1
  44r5.0243299e-001 2.66e+001 1.14e+004   2.9 7.47e+001    -  1.91e-001 2.86e-001f  1
  45r5.0002432e-001 2.59e+001 3.12e+005   2.2 3.40e+001    -  4.83e-001 2.66e-002f  1
  46r5.0012638e-001 2.26e+001 2.86e+005   2.2 6.48e+001    -  3.88e-001 2.45e-001f  1
  47r5.0019033e-001 1.90e+001 2.44e+005   2.2 4.36e+001    -  5.03e-001 2.04e-001f  1
  48r5.0054941e-001 2.04e+001 1.89e+005   2.6 4.49e+001    -  8.49e-001 3.33e-001f  1
  49r5.0159430e-001 5.34e+000 1.68e+005   2.6 1.65e+001    -  7.44e-001 7.95e-001f  1
iter    objective    inf_pr   inf_du lg(mu)  ||d||  lg(rg) alpha_du alpha_pr  ls
  50 5.0001593e-001 5.29e+000 2.49e+003   1.4 1.57e+002    -  1.45e-001 1.00e-002h  1
  51 5.0028103e-001 5.16e+000 4.09e+003   1.4 1.26e+002    -  2.89e-001 2.44e-002f  4
  52 5.0034985e-001 5.10e+000 1.98e+003   1.4 1.40e+002    -  4.95e-001 1.07e-002f  6
  53 5.0237787e-001 1.31e+001 4.66e+003   1.4 1.53e+002    -  1.92e-001 9.68e-002f  3
  54 5.0178934e-001 1.31e+001 9.66e+003   1.4 1.67e+002    -  4.15e-001 1.59e-003h  3
  55 5.0156791e-001 1.28e+001 2.25e+004   1.4 2.20e+002    -  3.74e-001 2.31e-002f  4
  56 5.0157127e-001 1.27e+001 2.34e+004   1.4 1.56e+002    -  5.04e-001 2.80e-003h  8
  57 5.0157189e-001 1.27e+001 6.70e+004   1.4 1.53e+002    -  2.44e-001 8.53e-005h 13
  58 5.0207954e-001 1.26e+001 1.18e+004   1.4 1.83e+002    -  4.94e-001 8.87e-003f  6
  59 5.0204737e-001 1.26e+001 3.54e+005   1.4 1.33e+002    -  2.42e-001 6.43e-005h  7
iter    objective    inf_pr   inf_du lg(mu)  ||d||  lg(rg) alpha_du alpha_pr  ls
  60 5.0179401e-001 1.26e+001 1.32e+006   1.4 3.21e+003    -  1.33e-002 5.86e-004h  4
  61 5.0087214e-001 1.18e+001 1.28e+008   1.4 3.75e+003    -  1.43e-002 1.20e-002w  1
  62 5.0000871e-001 1.27e+001 1.78e+007   1.4 1.36e+004    -  2.43e-003 1.72e-003w  1
  63 5.0000008e-001 1.27e+001 6.48e+009   3.5 9.81e+003    -  2.23e-002 1.72e-005h  1
  64 5.0000008e-001 1.27e+001 6.69e+009   4.0 2.13e+006    -  2.00e-005 3.31e-006f  4
  65 5.0000008e-001 1.27e+001 6.91e+009   4.0 2.58e+006    -  2.26e-005 4.79e-006f  3
  66 5.0000007e-001 1.27e+001 7.11e+009   1.9 1.81e+006    -  2.15e-005 7.14e-006f  3
  67 5.0000014e-001 1.17e+001 8.30e+007   3.8 3.43e+002    -  9.90e-001 8.68e-002f  2
  68 5.0000154e-001 1.15e+001 9.06e+007   3.7 1.73e+002    -  1.94e-001 2.26e-002f  4
  69 5.0000420e-001 1.11e+001 9.09e+007   3.7 1.73e+002    -  1.71e-001 3.45e-002h  3
iter    objective    inf_pr   inf_du lg(mu)  ||d||  lg(rg) alpha_du alpha_pr  ls
  70 5.0000451e-001 1.11e+001 1.23e+008   3.7 1.86e+002    -  5.31e-001 3.27e-003h  6
  71 5.0000454e-001 1.11e+001 1.38e+008   3.7 1.84e+002    -  4.03e-001 8.00e-005h 12
  72 5.0044673e-001 2.49e+001 1.34e+008   3.7 3.14e+002    -  5.52e-002 1.47e-002f  4
  73 5.0102473e-001 2.47e+001 1.30e+008   3.7 2.18e+002    -  2.20e-001 6.51e-003f  6
  74 5.0102502e-001 2.47e+001 1.30e+008   3.7 2.00e+002    -  1.90e-001 1.61e-004h 10
  75 5.0101709e-001 2.47e+001 6.86e+007   3.7 2.45e+002    -  2.38e-001 5.59e-005h  8
  76 5.0101594e-001 2.46e+001 6.40e+007   3.7 4.18e+002    -  1.76e-001 8.54e-004h  8
  77 5.0101583e-001 2.46e+001 7.84e+007   3.7 4.62e+002    -  3.27e-001 3.84e-004h  9
  78 5.0076832e-001 3.34e+001 1.68e+007   3.7 3.79e+002    -  1.19e-001 1.40e-001w  1
  79 5.0000767e-001 3.33e+001 8.66e+008   3.0 2.83e+002    -  2.38e-002 1.52e-003h  1
iter    objective    inf_pr   inf_du lg(mu)  ||d||  lg(rg) alpha_du alpha_pr  ls
  80 5.0000583e-001 3.33e+001 1.92e+009   3.0 3.20e+005    -  1.26e-004 2.28e-005h  3
  81 5.0000743e-001 3.31e+001 2.49e+009   3.0 2.10e+005    -  5.11e-004 6.88e-003H  1
  82 5.0000402e-001 3.31e+001 1.56e+009   3.0 1.98e+005    -  1.34e-006 1.76e-005f  2
  83 5.0000229e-001 3.41e+001 6.37e+008   3.0 8.48e+004    -  3.10e-005 2.65e-004H  1
  84 5.0000229e-001 3.41e+001 7.54e+008   3.0 2.84e+004    -  1.76e-003 2.58e-005h  1
  85 5.0000224e-001 3.57e+001 7.29e+008   3.0 2.20e+004    -  1.11e-003 2.16e-003H  1
  86 5.0000226e-001 3.65e+001 7.88e+008   3.0 3.38e+002    -  5.95e-002 5.75e-002f  2
  87 5.0000227e-001 3.60e+001 7.48e+008   3.0 3.41e+002    -  3.37e-002 1.24e-002f  4
  88 5.0000227e-001 3.60e+001 5.83e+008   3.0 3.54e+002    -  6.49e-002 3.68e-004h  7
  89 5.0000227e-001 3.60e+001 5.54e+008   3.0 3.52e+002    -  2.05e-002 1.67e-004f 10
iter    objective    inf_pr   inf_du lg(mu)  ||d||  lg(rg) alpha_du alpha_pr  ls
  90 5.0000228e-001 3.52e+001 4.36e+008   3.0 3.49e+002    -  9.00e-002 2.20e-002f  3
  91 5.0000228e-001 3.49e+001 4.26e+008   3.0 3.45e+002    -  1.99e-002 8.32e-003f  4
  92 5.0000211e-001 3.45e+001 5.60e+008   3.0 7.38e+002    -  1.06e-002 1.17e-002f  2
  93 5.0000213e-001 3.34e+001 4.67e+008   3.0 3.23e+002    -  9.84e-002 3.49e-002f  3
  94 5.0000214e-001 3.26e+001 5.37e+008   3.0 6.48e+002    -  1.13e-002 2.40e-002h  3
  95 5.0000215e-001 3.21e+001 4.97e+008   3.0 7.54e+002    -  4.39e-002 1.55e-002h  3
  96 5.0000217e-001 3.09e+001 5.27e+008   3.0 7.71e+002    -  8.49e-002 4.56e-002w  1
  97 5.0000216e-001 2.91e+001 7.46e+008   3.0 2.92e+002    -  4.37e-003 6.04e-002w  1
  98 5.0000217e-001 2.88e+001 7.19e+008   3.0 5.95e+002    -  2.57e-002 8.95e-003w  1
  99 5.0000215e-001 3.20e+001 3.60e+008   3.0 5.72e+002    -  8.49e-002 1.43e-003h  5
iter    objective    inf_pr   inf_du lg(mu)  ||d||  lg(rg) alpha_du alpha_pr  ls
 100 5.0000214e-001 3.03e+001 5.19e+008   3.0 4.17e+002    -  1.97e-002 5.47e-002H  1
 101 5.0000213e-001 3.02e+001 5.29e+008   3.0 3.05e+002    -  2.30e-002 4.89e-003h  3
 102 5.0000213e-001 3.02e+001 4.45e+008   3.0 5.57e+002    -  5.54e-002 6.71e-004f  8
 103 5.0000213e-001 3.02e+001 1.07e+009   3.0 5.63e+002    -  1.24e-001 3.64e-004h  5
 104 5.0000213e-001 2.99e+001 1.01e+009   3.0 5.83e+002    -  3.60e-002 9.58e-003h  4
 105r5.0000213e-001 2.99e+001 9.97e+002   3.0 0.00e+000    -  0.00e+000 3.58e-007R 15
 106r1.6387601e+000 3.03e+002 1.24e+005   5.3 1.55e+004    -  2.13e-003 5.50e-003f  1
 107r1.5658336e+000 2.65e+002 1.48e+005   3.4 6.95e+002    -  9.89e-002 5.20e-002f  1
 108r1.4610325e+000 2.35e+002 1.72e+005   3.4 5.23e+002    -  2.53e-001 8.45e-002f  1
 109r1.3793383e+000 2.00e+002 1.28e+005   3.4 2.09e+002    -  3.97e-001 1.27e-001f  1
iter    objective    inf_pr   inf_du lg(mu)  ||d||  lg(rg) alpha_du alpha_pr  ls
 110r1.2830350e+000 1.50e+002 2.56e+004   3.4 9.27e+001    -  6.79e-001 2.26e-001f  1
 111r9.9857715e-001 7.11e+001 3.46e+004   3.4 3.32e+001    -  5.59e-001 6.29e-001f  1
 112r7.5000596e-001 5.18e+001 5.69e+004   2.7 1.87e+001    -  2.84e-001 6.33e-001f  1
 113r6.3702869e-001 3.22e+001 7.01e+004   1.8 2.20e+001    -  4.84e-001 5.68e-001f  1
 114r6.2000432e-001 2.32e+001 1.26e+004   2.5 1.21e+001    -  8.88e-001 4.24e-001f  1
 115 6.0907999e-001 2.46e+001 8.22e+006   2.3 1.33e+002    -  1.00e+000 9.55e-002h  2
 116 6.0911441e-001 2.46e+001 5.55e+007   2.3 1.47e+002    -  3.29e-001 4.87e-004h  9
 117 6.0911647e-001 2.46e+001 1.50e+008   2.3 1.47e+002    -  1.00e+000 3.03e-005h 13
 118 6.1010933e-001 2.42e+001 2.82e+007   2.3 1.47e+002    -  3.18e-001 1.55e-002h  4
 119 6.1011509e-001 2.42e+001 2.77e+007   2.3 1.53e+002    -  1.00e+000 1.03e-004h 11
iter    objective    inf_pr   inf_du lg(mu)  ||d||  lg(rg) alpha_du alpha_pr  ls
 120 6.1011797e-001 2.42e+001 2.74e+007   2.3 1.53e+002    -  3.25e-001 5.18e-005h 12
 121 6.1012357e-001 2.42e+001 8.83e+007   2.3 1.25e+002    -  4.27e-001 2.36e-005h 15
 122 6.1012425e-001 2.42e+001 2.15e+008   2.3 1.20e+002    -  7.28e-001 3.07e-006h 18
 123 6.1012456e-001 2.42e+001 4.46e+008   2.3 1.10e+002    -  4.67e-001 1.68e-006h 19
 124 6.1012471e-001 2.42e+001 6.01e+008   2.3 1.10e+002    -  1.00e+000 9.09e-007h 20
 125 6.8477177e-001 4.35e+001 2.97e+012   2.3 1.10e+002    -  3.21e-001 4.77e-001w  1
 126 6.8168868e-001 4.33e+001 6.22e+012   2.3 1.04e+002    -  7.01e-002 6.00e-003w  1
 127 6.8164799e-001 4.33e+001 6.12e+012   2.3 1.05e+002    -  1.03e-001 7.67e-005w  1
 128 6.1013382e-001 2.42e+001 6.06e+008   2.3 1.12e+002    -  3.21e-001 5.82e-005h 13
 129 6.1013807e-001 2.42e+001 6.67e+008   2.3 1.09e+002    -  1.00e+000 2.96e-005h 15
iter    objective    inf_pr   inf_du lg(mu)  ||d||  lg(rg) alpha_du alpha_pr  ls
 130 6.0940256e-001 2.85e+001 2.14e+007   2.3 1.48e+002    -  1.53e-001 1.53e-001s 20
 131 5.8702525e-001 4.44e+001 1.75e+007   2.3 2.31e+002    -  1.55e-001 1.55e-001s 20
 132r5.8702525e-001 4.44e+001 9.98e+002   2.3 0.00e+000    -  0.00e+000 0.00e+000R  1
 133r5.5811552e-001 2.80e+001 2.85e+003   2.2 5.57e+003    -  2.44e-002 5.91e-003f  1
 134r5.3048560e-001 1.85e+001 1.01e+004   3.1 4.64e+002    -  9.56e-002 2.07e-002f  1
 135r5.0030485e-001 2.44e+001 3.19e+004   2.8 1.89e+002    -  1.83e-001 6.07e-002f  1
 136r5.0096341e-001 1.53e+001 1.36e+005   2.5 5.43e+001    -  4.17e-001 1.11e-001f  1
 137 5.0145609e-001 1.52e+001 1.03e+004   1.6 1.59e+002    -  2.80e-001 5.71e-003h  2
 138 5.0146277e-001 1.52e+001 6.79e+001   1.6 1.94e+002    -  3.09e-001 1.00e-003h  9
 139 5.0220900e-001 1.51e+001 6.84e+001   0.9 1.39e+002    -  2.47e-002 5.92e-003h  7
iter    objective    inf_pr   inf_du lg(mu)  ||d||  lg(rg) alpha_du alpha_pr  ls
 140 5.0792840e-001 1.49e+001 7.13e+002   0.9 1.62e+002    -  1.76e-001 1.90e-002f  5
 141 5.0942906e-001 1.48e+001 1.84e+003   0.9 1.62e+002    -  4.92e-002 9.11e-003h  6
 142 5.0965275e-001 1.48e+001 2.02e+003   0.9 1.75e+002    -  2.12e-001 1.96e-003h  8
 143 5.0967982e-001 1.48e+001 1.56e+003   0.9 1.76e+002    -  1.28e-001 2.41e-004h 11
 144r5.0967982e-001 1.48e+001 9.99e+002   1.2 0.00e+000    -  0.00e+000 4.93e-007R 20
 145r5.3193130e-001 5.89e+000 9.95e+002   3.3 4.50e+003    -  6.03e-003 2.87e-003f  1
 146 5.3186961e-001 5.89e+000 7.70e+002   0.9 1.57e+002    -  7.24e-002 8.49e-004h  6
 147 5.3188763e-001 5.89e+000 1.87e+001   0.9 1.44e+002    -  2.88e-001 2.07e-004h 11
 148 5.3190524e-001 5.89e+000 2.26e+001   0.2 1.58e+002    -  1.68e-001 8.45e-005h 13
 149 5.3269866e-001 5.87e+000 2.97e+001   0.2 1.56e+002    -  3.25e-001 3.24e-003h  8
iter    objective    inf_pr   inf_du lg(mu)  ||d||  lg(rg) alpha_du alpha_pr  ls
 150 5.3269725e-001 5.87e+000 3.02e+001   0.2 1.52e+002    -  6.44e-002 2.15e-005h 12
 151 5.3717729e-001 1.17e+001 3.39e+001   0.2 1.62e+002    -  1.95e-001 1.59e-002h  5
 152 5.3767321e-001 1.16e+001 4.21e+001   0.2 1.42e+002    -  2.82e-001 2.63e-003h  8
 153 5.4156251e-001 8.40e+000 7.35e+001   0.2 2.01e+002    -  2.09e-001 1.73e-002h  5
 154 5.4157736e-001 8.40e+000 1.80e+002   0.2 3.01e+002    -  3.64e-001 1.06e-004h 12
 155 5.4158289e-001 8.40e+000 8.46e+002   0.2 1.84e+002    -  2.06e-001 3.97e-005h 14
 156 5.4160226e-001 8.40e+000 7.31e+002   0.2 4.55e+002    -  1.84e-001 1.40e-004h 11
 157 5.4160761e-001 8.40e+000 7.08e+002   0.2 4.05e+002    -  7.99e-001 3.92e-005h 13
 158 5.8141916e-001 6.86e+001 3.24e+003   0.2 2.11e+002    -  1.69e-001 3.09e-001w  1
 159 5.5773129e-001 6.21e+001 1.36e+004   0.2 1.17e+002    -  2.39e-001 9.86e-002w  1
iter    objective    inf_pr   inf_du lg(mu)  ||d||  lg(rg) alpha_du alpha_pr  ls
 160 5.4961560e-001 5.87e+001 2.14e+004   0.2 1.80e+002    -  1.35e-001 5.59e-002w  1
 161 5.4161004e-001 8.40e+000 1.20e+003   0.2 1.90e+002    -  1.69e-001 1.89e-005h 14
 162 5.4160602e-001 8.40e+000 7.67e+003   0.2 1.44e+002    -  1.32e-001 4.43e-005h 10
 163 5.3840725e-001 4.08e+001 6.03e+002   0.2 1.44e+002    -  3.60e-002 3.60e-002s 18
 164r5.3840725e-001 4.08e+001 9.99e+002   1.6 0.00e+000    -  0.00e+000 0.00e+000R  1
 165r5.0038406e-001 3.33e+001 9.95e+002  -4.7 1.13e+004    -  6.80e-003 2.90e-003f  1
 166r5.2251601e-001 2.94e+001 3.99e+004   2.8 2.15e+003    -  5.55e-002 3.38e-003f  1
 167r5.2107812e-001 2.60e+001 4.78e+004   2.7 2.09e+002    -  1.89e-001 3.75e-002f  1
 168 5.2102763e-001 2.59e+001 5.14e+002   0.2 1.75e+002    -  2.86e-001 4.70e-003h  1
 169 5.2099162e-001 2.58e+001 9.81e+002   0.2 1.69e+002    -  2.48e-001 3.87e-003h  7
iter    objective    inf_pr   inf_du lg(mu)  ||d||  lg(rg) alpha_du alpha_pr  ls
 170 5.2106601e-001 2.58e+001 1.05e+003   0.2 2.46e+002    -  2.87e-001 8.98e-004h  9
 171 5.2110676e-001 2.58e+001 1.13e+003   0.2 2.42e+002    -  3.32e-001 4.56e-004h 10
 172 5.2111750e-001 2.58e+001 1.13e+003   0.2 2.36e+002    -  4.28e-001 1.17e-004h 12
 173 5.2111575e-001 2.58e+001 2.61e+003   0.2 1.72e+002    -  3.78e-001 1.27e-004h 12
 174r5.2111575e-001 2.58e+001 9.99e+002   1.4 0.00e+000    -  0.00e+000 2.85e-007R 21
 175r5.2603316e-001 8.11e+000 9.94e+002   3.1 8.03e+003    -  9.58e-003 2.55e-003f  1
 176 5.2615510e-001 8.09e+000 9.47e+001  -5.6 1.62e+002    -  1.43e-001 2.37e-003h  8
 177 5.8595416e-001 6.40e+001 2.36e+002   0.7 4.82e+002    -  4.04e-001 1.89e-001f  1
 178 5.9089674e-001 6.09e+001 2.79e+002   0.5 1.60e+002    -  2.06e-001 5.51e-002h  3
 179 5.9415872e-001 6.01e+001 2.98e+002   0.5 1.76e+002    -  2.03e-001 1.27e-002h  5
iter    objective    inf_pr   inf_du lg(mu)  ||d||  lg(rg) alpha_du alpha_pr  ls
 180 5.9925897e-001 5.91e+001 3.02e+002   0.5 2.00e+002    -  2.69e-001 1.80e-002h  5
 181 6.0056187e-001 5.88e+001 2.90e+002   0.5 1.89e+002    -  2.54e-001 4.50e-003h  7
 182 6.0050069e-001 5.88e+001 6.42e+002   0.5 2.14e+002    -  2.87e-001 7.36e-004h  5
 183 6.0049900e-001 5.88e+001 2.09e+003   0.5 2.18e+002    -  5.90e-001 5.14e-005h 12
 184 6.0049931e-001 5.88e+001 1.09e+004   0.5 1.92e+002    -  6.03e-001 1.39e-005h 15
 185 6.0049943e-001 5.88e+001 1.19e+004   0.5 1.87e+002    -  4.15e-001 1.71e-006h 18
 186r6.0049943e-001 5.88e+001 9.99e+002   1.8 0.00e+000    -  0.00e+000 4.38e-007R 20
 187r5.6873389e-001 3.87e+001 1.43e+003   3.4 9.21e+003    -  1.49e-002 4.51e-003f  1
 188 5.7306570e-001 3.81e+001 1.66e+002   0.5 2.24e+002    -  1.20e-001 1.35e-002h  5
 189 5.7721271e-001 3.75e+001 1.40e+002   0.5 3.38e+002    -  1.94e-001 1.35e-002h  5
iter    objective    inf_pr   inf_du lg(mu)  ||d||  lg(rg) alpha_du alpha_pr  ls
 190 5.8264111e-001 3.69e+001 1.23e+002   0.5 3.16e+002    -  1.54e-001 1.35e-002h  5
 191 5.8388409e-001 3.68e+001 1.06e+002   0.5 2.90e+002    -  1.97e-001 3.45e-003h  7
 192 5.8515490e-001 3.66e+001 7.91e+001   0.5 2.31e+002    -  4.12e-001 4.26e-003h  7
 193 5.8517373e-001 3.66e+001 1.81e+002   0.5 2.14e+002    -  3.32e-001 7.81e-005h 13
 194 5.8518093e-001 3.66e+001 5.11e+002   0.5 1.60e+002    -  2.09e-001 3.75e-005h 14
 195 5.7485791e-001 2.71e+001 2.87e+003   0.5 2.14e+002    -  3.99e-001 5.24e-002h  1
 196 5.7539464e-001 2.67e+001 3.55e+003   0.5 1.56e+002    -  2.36e-001 1.30e-002h  5
 197 5.7605046e-001 2.66e+001 3.49e+003   0.5 1.63e+002    -  4.17e-001 4.27e-003h  7
 198 5.7615682e-001 2.66e+001 3.55e+003   0.5 2.09e+002    -  4.46e-001 5.39e-004h 10
 199 5.7585107e-001 2.65e+001 3.89e+003   0.5 2.34e+002    -  2.60e-001 3.76e-003h  7
iter    objective    inf_pr   inf_du lg(mu)  ||d||  lg(rg) alpha_du alpha_pr  ls
 200 5.7470552e-001 2.56e+001 7.88e+003   0.5 2.53e+002    -  1.05e-001 3.39e-002h  3
 201 5.7425892e-001 2.56e+001 8.10e+003   0.5 2.26e+002    -  1.69e-001 2.05e-003h  6
 202 5.7417054e-001 2.56e+001 1.17e+004   0.5 2.29e+002    -  1.71e-001 4.28e-004h  9
 203 5.7410266e-001 2.56e+001 1.53e+005   0.5 2.25e+002    -  3.88e-001 3.63e-004h 10
 204 5.7409628e-001 2.56e+001 3.55e+005   0.5 2.12e+002    -  2.13e-001 4.49e-005h 13
 205 5.7404358e-001 2.56e+001 6.87e+006   0.5 2.25e+002    -  2.91e-001 4.31e-004h 10
 206 5.4775889e-001 2.23e+001 2.92e+005   0.5 2.26e+002    -  4.63e-001 2.18e-001w  1
 207 5.0047758e-001 2.25e+001 3.19e+006   0.5 2.46e+002    -  9.54e-002 8.78e-002w  1
 208 5.0000477e-001 2.25e+001 4.12e+006   0.5 4.38e+002    -  1.87e-002 1.96e-003w  1
 209 5.7363288e-001 2.55e+001 5.47e+006   0.5 4.99e+002    -  4.63e-001 3.41e-003h  6
iter    objective    inf_pr   inf_du lg(mu)  ||d||  lg(rg) alpha_du alpha_pr  ls
 210 5.7357809e-001 2.55e+001 5.14e+006   0.5 2.75e+002    -  2.21e-001 3.46e-004h 10
 211 5.7356384e-001 2.55e+001 5.06e+006   0.5 2.59e+002    -  4.95e-001 8.98e-005h 12
 212 5.7356098e-001 2.55e+001 5.04e+006   0.5 3.09e+002    -  1.40e-001 1.91e-005h 14
 213 5.7353485e-001 2.55e+001 4.54e+006   0.5 3.00e+002    -  4.13e-001 1.55e-004h 11
 214 5.7353033e-001 2.55e+001 4.51e+006   0.5 2.84e+002    -  1.00e-001 4.17e-005h 13
 215 5.7351106e-001 2.55e+001 2.79e+006   0.5 2.57e+002    -  3.48e-001 3.71e-004h 10
 216 5.7351413e-001 2.55e+001 2.76e+006   0.5 2.97e+002    -  7.89e-002 4.37e-005h 13
 217 5.8594434e-001 3.54e+001 1.37e+005   0.5 2.79e+002    -  1.91e-001 1.91e-001s 20
 218r5.8594434e-001 3.54e+001 9.99e+002   1.5 0.00e+000    -  0.00e+000 0.00e+000R  1
 219r5.6635923e-001 3.05e+001 9.98e+002   3.4 1.94e+004    -  1.70e-003 1.41e-003f  1
iter    objective    inf_pr   inf_du lg(mu)  ||d||  lg(rg) alpha_du alpha_pr  ls
 220r5.6069512e-001 2.88e+001 1.80e+003   3.4 2.49e+003    -  1.54e-002 2.56e-003f  1
 221r5.3347914e-001 2.38e+001 9.49e+003   3.3 8.72e+002    -  6.98e-002 1.13e-002f  1
 222r5.0033478e-001 1.91e+001 3.58e+004   2.7 2.71e+002    -  1.00e-001 2.73e-002f  1
 223r5.0040803e-001 2.44e+001 1.99e+005   2.6 1.96e+002    -  2.36e-001 2.07e-002f  1
 224r5.0040150e-001 2.14e+001 2.40e+005   2.4 1.09e+002    -  2.46e-001 1.42e-001f  1
 225 5.0000401e-001 2.10e+001 3.03e+003   0.5 3.22e+002    -  8.40e-002 1.60e-002h  1
 226 5.0000003e-001 2.10e+001 1.43e+007   0.5 1.79e+002   2.3 1.27e-001 3.16e-005h  1
 227 5.0000003e-001 2.08e+001 1.84e+007   0.5 1.75e+002   1.8 1.34e-001 1.11e-002h  2
 228 5.0000003e-001 2.07e+001 1.50e+007   0.5 2.79e+002    -  1.80e-001 5.13e-003h  6
 229 5.0000003e-001 2.05e+001 1.23e+007   0.5 3.92e+002    -  1.73e-001 8.76e-003h  5
iter    objective    inf_pr   inf_du lg(mu)  ||d||  lg(rg) alpha_du alpha_pr  ls
 230 5.0000003e-001 2.05e+001 9.74e+006   0.5 3.63e+002    -  1.90e-001 1.62e-003h  6
 231 5.0000003e-001 2.04e+001 6.79e+006   0.5 3.64e+002    -  2.68e-001 1.10e-003h  8
 232 5.0000003e-001 2.04e+001 3.95e+006   0.5 3.68e+002    -  3.49e-001 3.41e-005h 13
 233 5.0000003e-001 2.04e+001 1.67e+007   0.5 1.93e+002    -  2.78e-001 2.15e-005h 14
 234 5.0000024e-001 3.21e+001 2.74e+006   0.5 1.93e+002    -  2.34e-001 2.34e-001s 20
 235r5.0000024e-001 3.21e+001 1.00e+003   1.5 0.00e+000    -  0.00e+000 0.00e+000R  1
 236r5.0348936e-001 2.18e+001 6.25e+003   3.3 8.41e+003    -  6.96e-003 1.76e-003f  1
 237r5.0412768e-001 1.58e+001 2.14e+004   3.3 1.70e+003    -  4.23e-002 7.87e-003f  1
 238r5.0143234e-001 1.32e+001 9.05e+004   2.9 2.61e+002    -  1.18e-001 2.84e-002f  1
 239r5.0138966e-001 1.81e+001 1.55e+005   2.8 6.61e+001    -  2.66e-001 7.96e-002f  1
iter    objective    inf_pr   inf_du lg(mu)  ||d||  lg(rg) alpha_du alpha_pr  ls
 240 5.0001389e-001 1.80e+001 1.22e+003   0.5 2.36e+002   1.4 3.62e-002 4.36e-003h  1
 241 5.0123396e-001 1.78e+001 3.49e+004   1.2 3.08e+002    -  6.85e-002 1.57e-002f  2
 242 5.0092855e-001 1.77e+001 1.13e+005   1.3 2.99e+002    -  6.61e-002 7.32e-003h  3
 243 5.0092444e-001 1.77e+001 3.23e+005   1.3 3.21e+002    -  1.63e-001 4.11e-004h  7
 244 5.0077233e-001 5.04e+001 3.21e+005   1.3 3.24e+002    -  2.59e-002 2.59e-002s 17
 245r5.0077233e-001 5.04e+001 9.99e+002   1.7 0.00e+000    -  0.00e+000 0.00e+000R  1
 246r5.0000771e-001 4.19e+001 1.93e+003  -4.4 3.87e+004    -  1.73e-003 9.55e-004f  1
 247r5.0095857e-001 2.32e+001 4.05e+003   3.1 1.26e+004    -  1.32e-002 2.24e-003f  1
 248r5.0009781e-001 2.24e+001 4.31e+004   2.3 6.13e+002    -  5.17e-002 6.80e-003f  1
 249r5.0025435e-001 2.04e+001 6.68e+004   2.5 3.67e+002    -  9.02e-002 2.72e-002f  1
iter    objective    inf_pr   inf_du lg(mu)  ||d||  lg(rg) alpha_du alpha_pr  ls
 250 5.0000253e-001 2.04e+001 7.00e+003   0.6 2.90e+002    -  4.51e-002 8.96e-004h  1
 251 5.4367224e-001 1.77e+001 5.14e+004   3.5 1.02e+003    -  1.80e-002 1.29e-002f  1
 252 5.4400915e-001 5.25e+001 4.00e+004   1.8 2.07e+002    -  7.95e-002 1.91e-002f  3
 253 5.3933730e-001 2.28e+001 6.33e+004   1.8 1.95e+002    -  9.92e-002 1.30e-001h  1
 254 5.3587121e-001 2.26e+001 1.01e+005   1.8 2.86e+002    -  3.11e-002 7.50e-003h  1
 255 5.2049159e-001 2.12e+001 1.42e+005   1.8 3.93e+002    -  5.32e-002 5.12e-002h  1
 256 5.1862346e-001 2.10e+001 1.17e+005   1.8 3.57e+002    -  1.93e-003 6.92e-003f  4
 257 5.1810887e-001 2.10e+001 1.64e+005   1.8 3.65e+002    -  2.83e-002 3.11e-003f  5
 258 5.1807070e-001 2.10e+001 3.23e+005   1.8 3.69e+002    -  9.04e-003 7.22e-004f  7
 259 5.1805888e-001 2.10e+001 1.96e+005   1.8 3.87e+002    -  7.59e-002 3.39e-004f  8
iter    objective    inf_pr   inf_du lg(mu)  ||d||  lg(rg) alpha_du alpha_pr  ls
 260 5.1805752e-001 2.10e+001 2.52e+005   1.8 3.61e+002    -  8.02e-003 4.50e-005f 11
 261 5.1805742e-001 2.10e+001 7.98e+005   1.8 2.66e+002    -  5.60e-002 3.00e-005h 12
 262 5.1805395e-001 2.70e+001 1.52e+005   1.8 2.36e+002    -  8.37e-002 2.20e-003f  6
 263 5.1798413e-001 2.70e+001 3.68e+005   1.8 5.66e+002    -  3.97e-002 2.00e-004h  9
 264 5.1797783e-001 2.70e+001 9.13e+005   1.8 5.14e+002    -  4.60e-002 1.46e-005h 11
 265 5.1692113e-001 2.69e+001 1.07e+006   1.8 1.22e+003    -  1.90e-002 5.10e-003f  4
 266 5.0738558e-001 2.64e+001 1.64e+006   1.8 3.77e+002    -  2.42e-002 1.88e-002w  1
 267 5.0007385e-001 2.59e+001 2.90e+005   1.8 1.21e+003    -  2.66e-003 1.70e-002w  1
 268 5.0000073e-001 2.06e+001 2.02e+006   1.8 8.50e+003    -  6.92e-004 9.41e-004w  1
 269 5.1677214e-001 2.69e+001 1.95e+006   1.8 5.48e+004    -  2.42e-002 2.93e-004h  6
iter    objective    inf_pr   inf_du lg(mu)  ||d||  lg(rg) alpha_du alpha_pr  ls
 270 5.1673988e-001 2.66e+001 1.91e+006   1.8 2.12e+002    -  1.70e-002 9.58e-003f  4
 271 5.1673776e-001 2.66e+001 1.79e+006   1.8 2.68e+002    -  7.24e-002 9.68e-004h  8
 272 5.1673540e-001 2.64e+001 1.75e+006   1.8 2.78e+002    -  1.91e-002 5.48e-003f  6
 273 5.1673765e-001 2.63e+001 1.52e+006   1.8 2.89e+002    -  1.13e-001 5.05e-003f  6
 274 5.1671510e-001 2.62e+001 1.48e+006   1.8 2.86e+002    -  3.03e-002 4.57e-003h  5
 275 5.1670476e-001 2.61e+001 1.37e+006   1.8 2.89e+002    -  8.88e-002 2.33e-003f  7
 276 5.1668442e-001 2.60e+001 1.32e+006   1.8 2.97e+002    -  4.81e-002 3.71e-003h  6
 277 5.1668502e-001 2.59e+001 1.14e+006   1.8 2.87e+002    -  1.31e-001 5.26e-003f  6
 278 5.1668183e-001 2.58e+001 1.08e+006   1.8 3.07e+002    -  5.91e-002 7.22e-004h  9
 279 5.1661439e-001 2.41e+001 1.59e+006   1.8 3.27e+002    -  5.35e-002 1.77e-001w  1
iter    objective    inf_pr   inf_du lg(mu)  ||d||  lg(rg) alpha_du alpha_pr  ls
 280 5.0016613e-001 2.34e+001 1.78e+006   1.8 3.81e+002    -  3.85e-002 3.19e-002w  1
 281 5.0000165e-001 2.34e+001 4.54e+007   1.8 5.11e+003    -  7.46e-003 4.17e-004w  1
 282 5.1668176e-001 2.58e+001 1.01e+006   1.8 1.93e+004    -  5.35e-002 1.73e-004h 10
 283 5.1668177e-001 2.58e+001 1.56e+006   1.8 4.10e+002    -  1.07e-001 6.90e-005h 12
 284 5.1668179e-001 2.58e+001 3.27e+006   1.8 3.85e+002    -  1.31e-001 3.47e-005h 13
 285 5.1668182e-001 2.58e+001 1.61e+007   1.8 3.92e+002    -  4.93e-002 3.26e-005h 13
 286 5.1672578e-001 2.03e+001 1.71e+006   1.8 4.07e+002    -  1.13e-001 1.96e-002f  3
 287 5.1669353e-001 2.03e+001 1.15e+007   1.8 4.31e+002    -  1.62e-002 4.58e-004h  7
 288 5.2360758e-001 2.58e+001 2.79e+008   1.8 3.69e+002    -  2.82e-004 3.72e-003F  1
 289 5.2139449e-001 2.57e+001 3.08e+008   1.8 3.38e+002    -  2.46e-003 4.02e-003f  4
iter    objective    inf_pr   inf_du lg(mu)  ||d||  lg(rg) alpha_du alpha_pr  ls
 290 5.1917789e-001 2.56e+001 3.32e+008   1.8 3.41e+002    -  5.82e-002 4.77e-003h  3
 291 5.1884690e-001 2.55e+001 3.35e+008   1.8 2.98e+002    -  1.28e-002 8.18e-004h  5
 292 5.1862363e-001 2.55e+001 3.33e+008   1.8 3.30e+002    -  7.79e-002 9.40e-004h  5
 293 5.1698077e-001 2.01e+001 3.57e+008   1.8 8.88e+002    -  3.84e-003 4.46e-003f  3
 294 5.1669316e-001 2.01e+001 3.61e+008   1.8 3.78e+002    -  6.76e-003 5.70e-004h  5
 295 5.1662861e-001 2.01e+001 3.81e+008   1.8 4.12e+002    -  9.25e-002 1.29e-004h  9
 296 5.1657312e-001 2.01e+001 3.97e+008   1.8 3.74e+002    -  4.65e-002 1.15e-004h  9
 297 5.1654557e-001 2.01e+001 4.14e+008   1.8 7.51e+002    -  2.97e-002 7.02e-005h  8
 298 5.1654443e-001 2.01e+001 4.11e+008   1.8 2.89e+003    -  8.05e-003 1.89e-005h  9
 299 5.1612338e-001 2.52e+001 1.43e+008   1.8 2.69e+003    -  5.33e-003 6.93e-003w  1
iter    objective    inf_pr   inf_du lg(mu)  ||d||  lg(rg) alpha_du alpha_pr  ls
 300 5.0016122e-001 1.94e+001 1.08e+008   1.8 8.02e+002    -  1.25e-004 3.26e-002w  1
 301 5.0016122e-001 1.92e+001 2.67e+008   1.8 3.54e+002    -  1.01e-001 1.36e-002w  1
 302 5.1654361e-001 2.01e+001 4.09e+008   1.8 4.67e+002    -  5.33e-003 1.35e-005h  9
 303 5.1654161e-001 1.98e+001 4.53e+007   1.8 4.52e+002    -  1.23e-002 1.23e-002s 16
 304r5.1654161e-001 1.98e+001 1.00e+003   1.8 0.00e+000    -  0.00e+000 0.00e+000R  1
 305r5.0338284e-001 1.77e+001 2.03e+003  -4.0 2.64e+003    -  1.02e-002 6.13e-003f  1
